0001 8
0002 13
0003 8
0004 4
0005 6
0006 5
0007 5
0008 5
0009 12
0010 10
0011 2
0012 10
0013 10
0014 7
0015 13
0016 13
0017 10
0018 5
0019 11
0020 8
0021 13
0022 13
0023 11
0024 11
0025 13
0026 9
0027 10
0028 8
0029 1
0030 13
0031 13
0032 10
0033 7
0034 7
0035 1
0036 12
0037 1
0038 9
0039 13
0040 5
0041 9
0042 9
0043 8
0044 5
0045 8
0046 9
0047 8
0048 13
0049 1
0050 7
0051 12
0052 5
0053 12
0054 13
0055 2
0056 1
0057 5
0058 11
0059 9
0060 9
0061 13
0062 5
0063 11
0064 8
0065 13
0066 11
0067 5
0068 4
0069 4
0070 4
0071 9
0072 6
0073 2
0074 2
0075 2
0076 13
0077 10
0078 1
0079 12
0080 13
0081 5
0082 5
0083 5
0084 7
0085 13
0086 11
0087 13
0088 5
0089 11
0090 5
0091 9
0092 9
0093 8
0094 11
0095 3
0096 3
0097 6
0098 2
0099 2
0100 8
0101 2
0102 2
0103 10
0104 10
0105 4
0106 4
0107 12
0108 12
0109 12
0110 12
0111 12
0112 5
0113 5
0114 13
0115 5
0116 12
0117 13
0118 10
0119 12
0120 8
0121 8
0122 8
0123 11
0124 10
0125 9
0126 13
0127 5
0128 5
0129 13
0130 6
0131 8
0132 11
0133 7
0134 9
0135 3
0136 1
0137 7
0138 11
0139 3
